boundary p p p
echo both
units           real
newton          off
#~~~~~~~~~~~~~~~~~~~~~~~~~~~~~~~~~~~~~~~~~~~~~~~~~
variable w       equal W
variable nn      equal NN
variable nsteps  equal NSTEPS
variable db      string DB
#~~~~~~~~~~~~~~~~~~~~~~~~~~~~~~~~~~~~~~~~~~~~~~~~~
lattice         fcc 5.405
variable        cut equal 5.
# nearest neighbor distance :  3.822  [A].
region          BOX block 0 $w 0 $w 0 $w
create_box      1  BOX
create_atoms    1 region BOX
mass            * 39.95
variable natoms equal atoms
velocity all create 60.0 4928459 rot yes mom yes dist gaussian
timestep 1.0
#------------------------------------------------
# (1) thermalize
#------------------------------------------------
pair_style      lj/cut 13.5
pair_coeff      * * 0.238 3.405
fix NVE all nve
compute F all reduce sum fx fy fz vx vy vz
thermo_style custom step temp c_F[4] c_F[5] c_F[6] etotal c_F[1] c_F[2] c_F[3]
thermo 10
log thermalize.log
run 2000
shell "perl -nwe 'if (/^\s+\d+/) { print $_;}' thermalize.log > thermalize.dat"
write_data Ar_$w.data
#------------------------------------------------
# (2) database build
#------------------------------------------------
thermo 1
reset_timestep 0
dump F all custom 1 Ar-force.dmp id type fx fy fz
dump_modify F sort id format "%d %d %24.19g %24.19g %24.19g"
pair_style hybrid/overlay lj/cut 13.5 ext ${cut} ${db} ${nn}
pair_coeff      * * lj/cut 0.238 3.405
pair_coeff      * * ext
variable T equal temp
variable t format T %10.6f
variable S equal step
variable s format S %6d
fix P all print 1 "$S $t" file init.dat
log init.log
run ${nsteps}
